70
150
105	4
104	4
103	4
102	5
101	5
100	1
99	3
96	2
95	1
94	1
93	2
92	8
91	6
89	3
88	3
87	5
86	1
85	7
84	4
83	1
82	1
81	1
80	1
79	1
78	2
77	1
76	4
75	2
74	2
73	1
72	4
71	4
70	1
69	2
68	3
67	1
66	3
65	4
64	3
63	1
62	3
61	3
60	6
59	2
58	3
57	3
56	1
55	3
54	1
52	2
51	2
50	4
49	3
48	2
47	4
46	4
45	6
44	1
43	3
42	3
41	5
38	3
37	4
36	4
35	2
34	1
33	1
32	5
31	2
30	2
